c Sudoku solution
p cnf 729 0
219 0
234 0
261 0
317 0
328 0
359 0
364 0
471 0
492 0
529 0
533 0
576 0
622 0
688 0
694 0
724 0
736 0
769 0
783 0
673 0
489 0
649 0
798 0
843 0
393 0
851 0
711 0
631 0
121 0
381 0
346 0
541 0
991 0
912 0
923 0
113 0
226 0
253 0
463 0
938 0
815 0
827 0
839 0
868 0
896 0
979 0
616 0
456 0
425 0
437 0
966 0
199 0
186 0
174 0
278 0
872 0
884 0
375 0
282 0
297 0
245 0
135 0
332 0
777 0
985 0
755 0
742 0
657 0
665 0
562 0
152 0
167 0
148 0
947 0
954 0
444 0
558 0
418 0
514 0
587 0
595 0
